Route #1: 15 8 17 42 21
Route #2: 1 28 29 19 32
Route #3: 5 39
Route #4: 10 35 45 41 23 3
Route #5: 13 38 22 46 14 31
Route #6: 6 30 11 16 24 43 36 20
Route #7: 25 4 18 26 47 49 33 9
Route #8: 44 27 12 37 7 40 48 34 2
Cost 1334